(set-logic QF_NRA)
(declare-fun yuscore2dollarsk_1 () Real)
(declare-fun stuscore2dollarsk_0 () Real)
(assert (= yuscore2dollarsk_1 5))
(assert (= stuscore2dollarsk_0 2))
(assert (>= yuscore2dollarsk_1 1))
(assert (<= yuscore2dollarsk_1 12))
(assert (not (= stuscore2dollarsk_0 1)))
(assert (not (= stuscore2dollarsk_0 3)))
(assert (not (>= yuscore2dollarsk_1 5)))
(check-sat)
